(set-option :incremental false)
(set-info :source "Reduced by delta debugger from eq_diamond14 to fix a UF bug.")
(set-logic ALL)
(declare-const BAV1 Bool)
(declare-const BAV2 Bool)
(declare-const BAV3 Bool)
(declare-const BAV4 Bool)
(declare-const BAV5 Bool)
(declare-const BAV6 Bool)
(declare-const BAV7 Bool)
(declare-const BAV8 Bool)
(declare-const BAV9 Bool)
(declare-const BAV10 Bool)
(declare-const BAV11 Bool)
(declare-const BAV12 Bool)
(declare-const BAV13 Bool)
(declare-const BAV14 Bool)
(declare-const BAV15 Bool)
(declare-const BAV16 Bool)
(declare-const BAV17 Bool)
(declare-const BAV18 Bool)
(declare-const BAV19 Bool)
(declare-const BAV20 Bool)
(declare-const BAV21 Bool)
(declare-const BAV22 Bool)
(declare-const BAV23 Bool)
(declare-const BAV24 Bool)
(declare-const BAV25 Bool)
(declare-const BAV26 Bool)
(declare-const BAV27 Bool)
(declare-const BAV28 Bool)
(declare-const BAV29 Bool)
(declare-const BAV30 Bool)
(declare-const BAV31 Bool)
(declare-const BAV32 Bool)
(declare-const BAV33 Bool)
(declare-const BAV34 Bool)
(declare-const BAV35 Bool)
(declare-const BAV36 Bool)
(declare-const BAV37 Bool)
(declare-const BAV38 Bool)
(declare-const BAV39 Bool)
(declare-const BAV40 Bool)
(declare-const BAV41 Bool)
(declare-const BAV42 Bool)
(declare-const BAV43 Bool)
(declare-const BAV44 Bool)
(declare-const BAV45 Bool)
(declare-const BAV46 Bool)
(declare-const BAV47 Bool)
(declare-const BAV48 Bool)
(declare-sort U 0)
(declare-sort V 0)
(declare-fun x13 () V)
(declare-fun x0 () V)
(declare-fun y12 () V)
(declare-fun x12 () V)
(declare-fun z11 () V)
(declare-fun x11 () V)
(declare-fun y11 () V)
(declare-fun z10 () V)
(declare-fun x10 () V)
(declare-fun y10 () V)
(declare-fun y9 () V)
(declare-fun x9 () V)
(declare-fun y8 () V)
(declare-fun x8 () V)
(declare-fun y7 () V)
(declare-fun x7 () V)
(declare-fun y6 () V)
(declare-fun x6 () V)
(declare-fun y5 () V)
(declare-fun x5 () V)
(declare-fun y4 () V)
(declare-fun x4 () V)
(declare-fun y3 () V)
(declare-fun x3 () V)
(declare-fun y2 () V)
(declare-fun x2 () V)
(declare-fun y1 () V)
(declare-fun x1 () V)
(declare-fun y0 () V)
(assert (= BAV1 (and (and (= x0 y0) (= y0 x1)) (and (= x1 y1) (= y1 x2)) (and (= x2 y2) (= y2 x3)) (and (= x3 y3) (= y3 x4)) (and (= x4 y4) (= y4 x5)) (and (= x5 y5) (= y5 x6)) (and (= x6 y6) (= y6 x7)) (and (= x7 y7) (= y7 x8)) (and (= x8 y8) (= y8 x9)) (and (= x9 y9) (= y9 x10)) (or (and false (= y10 x11)) (and (= x10 z10) (= x11 z10))) (or (and (= x11 y11) (= y11 x12)) (and (= x11 z11) (= x12 z11))) (and (= x12 y12) (= y12 x13)) (not (= x0 x13)))))
(assert (= BAV2 (and (= x0 y0) (= y0 x1))))
(assert (= BAV3 (= x0 y0)))
(assert (= BAV4 (= y0 x1)))
(assert (= BAV5 (and (= x1 y1) (= y1 x2))))
(assert (= BAV6 (= x1 y1)))
(assert (= BAV7 (= y1 x2)))
(assert (= BAV8 (and (= x2 y2) (= y2 x3))))
(assert (= BAV9 (= x2 y2)))
(assert (= BAV10 (= y2 x3)))
(assert (= BAV11 (and (= x3 y3) (= y3 x4))))
(assert (= BAV12 (= x3 y3)))
(assert (= BAV13 (= y3 x4)))
(assert (= BAV14 (and (= x4 y4) (= y4 x5))))
(assert (= BAV15 (= x4 y4)))
(assert (= BAV16 (= y4 x5)))
(assert (= BAV17 (and (= x5 y5) (= y5 x6))))
(assert (= BAV18 (= x5 y5)))
(assert (= BAV19 (= y5 x6)))
(assert (= BAV20 (and (= x6 y6) (= y6 x7))))
(assert (= BAV21 (= x6 y6)))
(assert (= BAV22 (= y6 x7)))
(assert (= BAV23 (and (= x7 y7) (= y7 x8))))
(assert (= BAV24 (= x7 y7)))
(assert (= BAV25 (= y7 x8)))
(assert (= BAV26 (and (= x8 y8) (= y8 x9))))
(assert (= BAV27 (= x8 y8)))
(assert (= BAV28 (= y8 x9)))
(assert (= BAV29 (and (= x9 y9) (= y9 x10))))
(assert (= BAV30 (= x9 y9)))
(assert (= BAV31 (= y9 x10)))
(assert (= BAV32 (or (and false (= y10 x11)) (and (= x10 z10) (= x11 z10)))))
(assert (= BAV33 (and false (= y10 x11))))
(assert (= BAV34 (= y10 x11)))
(assert (= BAV35 (and (= x10 z10) (= x11 z10))))
(assert (= BAV36 (= x10 z10)))
(assert (= BAV37 (= x11 z10)))
(assert (= BAV38 (or (and (= x11 y11) (= y11 x12)) (and (= x11 z11) (= x12 z11)))))
(assert (= BAV39 (and (= x11 y11) (= y11 x12))))
(assert (= BAV40 (= x11 y11)))
(assert (= BAV41 (= y11 x12)))
(assert (= BAV42 (and (= x11 z11) (= x12 z11))))
(assert (= BAV43 (= x11 z11)))
(assert (= BAV44 (= x12 z11)))
(assert (= BAV45 (and (= x12 y12) (= y12 x13))))
(assert (= BAV46 (= x12 y12)))
(assert (= BAV47 (= y12 x13)))
(assert (= BAV48 (= x0 x13)))
(check-sat-assuming ((and (and (= x0 y0) (= y0 x1)) (and (= x1 y1) (= y1 x2)) (and (= x2 y2) (= y2 x3)) (and (= x3 y3) (= y3 x4)) (and (= x4 y4) (= y4 x5)) (and (= x5 y5) (= y5 x6)) (and (= x6 y6) (= y6 x7)) (and (= x7 y7) (= y7 x8)) (and (= x8 y8) (= y8 x9)) (and (= x9 y9) (= y9 x10)) (or (and false (= y10 x11)) (and (= x10 z10) (= x11 z10))) (or (and (= x11 y11) (= y11 x12)) (and (= x11 z11) (= x12 z11))) (and (= x12 y12) (= y12 x13)) (not (= x0 x13)))))
(get-model)